c WARNING: for repeatability, setting FPU to use double precision
d VARIABLES            72338        
d CONSTRAINTS          255856       
c ============================[ Problem Statistics ]=============================
c |                                                                             |
c |  Number of variables:         72338                                         |
c |  Number of clauses:          255856                                         |
c |  Parse time:                   0.04 s                                       |
c |                                                                             |
c ============================[ Search Statistics ]==============================
c | Conflicts |          ORIGINAL         |          LEARNT          | Progress |
c |           |    Vars  Clauses Literals |    Limit  Clauses Lit/Cl |          |
c ===============================================================================
c |       100 |   52647   205030   515889 |    75177       99     17 | 27.221 % |
c |       250 |   52647   205026   515879 |    82695      249     31 | 27.221 % |
c |       475 |   52647   205026   515879 |    90964      474     21 | 27.221 % |
c |       812 |   52647   205026   515879 |   100061      811     18 | 27.221 % |
c |      1318 |   52647   205026   515879 |   110067     1317     25 | 27.221 % |
c |      2077 |   52647   205026   515879 |   121074     2076     31 | 27.221 % |
c |      3216 |   52647   205026   515879 |   133181     3215     69 | 27.221 % |
c |      4924 |   52647   205026   515879 |   146500     4923     78 | 27.221 % |
c |      7486 |   52647   205026   515879 |   161150     7485    102 | 27.221 % |
c |     11330 |   52647   205026   515879 |   177265    11329     99 | 27.221 % |
c |     17096 |   52646   205015   515853 |   194991    17093    106 | 27.222 % |
c |     25745 |   52645   205004   515827 |   214490    25741    112 | 27.224 % |
c |     38719 |   52644   204993   515801 |   235939    38708    122 | 27.225 % |
c |     58180 |   52642   204971   515749 |   259533    58161    123 | 27.228 % |
c |     87372 |   52627   204859   515485 |   285487    87308    132 | 27.248 % |
c |    131161 |   52616   204703   515117 |   314035   131035    135 | 27.264 % |
c ===============================================================================
c restarts              : 389
c conflicts             : 148627         (3307 /sec)
c decisions             : 520955         (0.00 % random) (11592 /sec)
c propagations          : 185711306      (4132170 /sec)
c conflict literals     : 19634634       (35.10 % deleted)
d RESTARTS             389
d FAILURES             148627       
d NODES                520955       
d BACKTRACKS           520955       
d PROPAGATIONS         185711306    
d NOGOODSIZE           132.11 
d MEMORY               154.00 
d TIME                 44.9428 

s UNSATISFIABLE
